100
32
17
9
9
13
8
17
22
7
17
1
9
8
3
1
1
16
9
11
1
14
3
2
1
8
1
1
9
1
16
6
5
19
20
2
2
1
3
1
17
1
3
17
18
2
4
1
4
2
1
2
5
1
1
6
1
1
3
19
5
2
1
1
2
5
1
4
1
3
1
2
1
2
2
6
1
2
17
3
1
24
2
1
18
2
4
1
2
1
1
1
1
1
2
4
2
2
1
5
2
1